DIMENSION :24
NODE_COORD_SECTION
1 79.80908020624474 -13.913601513620847
2 24.321581910141816 35.628288936167365
3 -51.00256529651321 -21.053339943399394
4 45.63942555866771 28.680964073540736
5 -94.35057224190724 -76.88023580371235
6 95.00564921036437 52.73651739690945
7 43.62896096777246 -72.69841208616839
8 14.100541713444585 -92.0492081776841
9 -76.63618644880323 36.29123916781916
10 12.47097728568751 95.99195051143468
11 32.094373220188885 81.37925385703448
12 -60.48256810763184 -47.000992090014115
13 -94.12432247896945 -96.79168054136011
14 -4.113725592370159 -2.4669080717790024
15 7.162011499404855 2.312904077876283
16 9.053686022085088 49.215976625438515
17 84.0300877896264 -43.66688952504221
18 95.73914421174132 48.16457534322916
19 -49.42681433043106 57.93717944307369
20 -87.11201170638708 10.994051623743445
21 22.725347940565626 -26.223855009309688
22 -40.68592724536011 -3.9236350410221377
23 -80.24880610294281 2.333165329346869
24 -68.30474512051165 -81.09496102483425
EOF
